(set-info :source |printed by MathSAT|)
(declare-fun |.x{26}| () (Array Int Int))
(declare-fun |.x{30}| () (Array Int Int))
(declare-fun |.x{27}| () Int)
(declare-fun |.y{8}| () Int)
(declare-fun |.x{28}| () Int)
(declare-fun |.y{9}| () Int)
(declare-fun |.y{4}| () Int)
(declare-fun |.y{10}| () Int)
(declare-fun |.y{5}| () (Array Int Int))
(declare-fun |.x{29}| () (Array Int Int))
(declare-fun |.y{6}| () Int)
(declare-fun |.x{31}| () Int)
(declare-fun |.y{7}| () Int)
(declare-fun |.x{32}| () Int)
(declare-fun |.loc{3}| () Bool)
(declare-fun |.loc{5}| () Bool)
(declare-fun |.loc{4}| () Bool)
(declare-fun |.loc{6}| () Bool)
(declare-fun |.x{45}| () Int)
(declare-fun |.x{46}| () Int)
(define-fun .def_10 () Int (! |.x{27}| :next |.y{8}|))
(define-fun .def_111 () Bool (= .def_10 0))
(define-fun .def_24 () Bool (! |.loc{4}| :next |.loc{6}|))
(define-fun .def_34 () Bool (not .def_24))
(define-fun .def_22 () Bool (! |.loc{3}| :next |.loc{5}|))
(define-fun .def_55 () Bool (and .def_22 .def_34))
(define-fun .def_112 () Bool (! (and .def_55 .def_111) :init true))
(define-fun .def_8 () (Array Int Int) (! |.x{26}| :next |.x{30}|))
(define-fun .def_108 () Bool (= .def_8 |.x{30}|))
(define-fun .def_48 () Bool (not |.loc{5}|))
(define-fun .def_104 () Bool (and |.loc{6}| .def_48))
(define-fun .def_97 () Bool (= |.x{31}| 0))
(define-fun .def_12 () Int (! |.x{28}| :next |.y{9}|))
(define-fun .def_95 () Bool (= .def_12 |.x{32}|))
(define-fun .def_98 () Bool (and .def_95 .def_97))
(define-fun .def_99 () Bool (and .def_22 .def_98))
(define-fun .def_100 () Bool (and .def_34 .def_99))
(define-fun .def_62 () Bool (<= .def_12 .def_10))
(define-fun .def_101 () Bool (and .def_62 .def_100))
(define-fun .def_102 () Bool (and .def_62 .def_101))
(define-fun .def_20 () Int (! |.y{7}| :next |.x{32}|))
(define-fun .def_79 () Int (* (- 1) |.x{31}|))
(define-fun .def_90 () Int (+ .def_79 .def_20))
(define-fun .def_91 () Int (select .def_8 .def_90))
(define-fun .def_18 () Int (! |.y{6}| :next |.x{31}|))
(define-fun .def_16 () (Array Int Int) (! |.y{5}| :next |.x{29}|))
(define-fun .def_92 () (Array Int Int) (store .def_16 .def_18 .def_91))
(define-fun .def_93 () Bool (= |.x{29}| .def_92))
(define-fun .def_86 () Bool (<= .def_20 .def_18))
(define-fun .def_87 () Bool (not .def_86))
(define-fun .def_84 () Bool (= .def_20 |.x{32}|))
(define-fun .def_80 () Int (+ .def_18 .def_79))
(define-fun .def_81 () Bool (= .def_80 (- 1)))
(define-fun .def_82 () Bool (and .def_24 .def_81))
(define-fun .def_46 () Bool (not .def_22))
(define-fun .def_83 () Bool (and .def_46 .def_82))
(define-fun .def_85 () Bool (and .def_83 .def_84))
(define-fun .def_88 () Bool (and .def_85 .def_87))
(define-fun .def_94 () Bool (and .def_88 .def_93))
(define-fun .def_103 () Bool (or .def_94 .def_102))
(define-fun .def_105 () Bool (and .def_103 .def_104))
(define-fun .def_71 () Int (* (- 1) |.y{8}|))
(define-fun .def_72 () Int (+ .def_10 .def_71))
(define-fun .def_73 () Bool (= .def_72 (- 1)))
(define-fun .def_14 () Int (! |.y{4}| :next |.y{10}|))
(define-fun .def_69 () Bool (= |.y{9}| .def_14))
(define-fun .def_66 () Bool (and |.loc{5}| .def_34))
(define-fun .def_67 () Bool (and .def_46 .def_66))
(define-fun .def_50 () Bool (not |.loc{6}|))
(define-fun .def_68 () Bool (and .def_50 .def_67))
(define-fun .def_70 () Bool (and .def_68 .def_69))
(define-fun .def_74 () Bool (and .def_70 .def_73))
(define-fun .def_36 () Bool (<= .def_14 .def_12))
(define-fun .def_75 () Bool (and .def_36 .def_74))
(define-fun .def_106 () Bool (or .def_75 .def_105))
(define-fun .def_63 () Bool (not .def_62))
(define-fun .def_40 () Int (* (- 1) |.y{9}|))
(define-fun .def_58 () Int (+ .def_10 .def_40))
(define-fun .def_59 () Bool (= .def_58 (- 1)))
(define-fun .def_54 () Bool (= .def_12 |.y{10}|))
(define-fun .def_56 () Bool (and .def_54 .def_55))
(define-fun .def_44 () Bool (= .def_10 |.y{8}|))
(define-fun .def_57 () Bool (and .def_44 .def_56))
(define-fun .def_60 () Bool (and .def_57 .def_59))
(define-fun .def_61 () Bool (and .def_48 .def_60))
(define-fun .def_64 () Bool (and .def_61 .def_63))
(define-fun .def_65 () Bool (and .def_50 .def_64))
(define-fun .def_107 () Bool (or .def_65 .def_106))
(define-fun .def_109 () Bool (and .def_107 .def_108))
(define-fun .def_52 () Bool (= .def_14 |.y{10}|))
(define-fun .def_41 () Int (+ .def_12 .def_40))
(define-fun .def_42 () Bool (= .def_41 (- 1)))
(define-fun .def_37 () Bool (not .def_36))
(define-fun .def_26 () Int (select .def_8 .def_10))
(define-fun .def_27 () Int (select .def_8 .def_12))
(define-fun .def_28 () (Array Int Int) (store .def_8 .def_10 .def_27))
(define-fun .def_29 () (Array Int Int) (store .def_28 .def_12 .def_26))
(define-fun .def_30 () Bool (<= .def_26 .def_27))
(define-fun .def_31 () Bool (not .def_30))
(define-fun .def_32 () (Array Int Int) (ite .def_31 .def_29 .def_8))
(define-fun .def_33 () Bool (= |.x{30}| .def_32))
(define-fun .def_35 () Bool (and .def_33 .def_34))
(define-fun .def_38 () Bool (and .def_35 .def_37))
(define-fun .def_43 () Bool (and .def_38 .def_42))
(define-fun .def_45 () Bool (and .def_43 .def_44))
(define-fun .def_47 () Bool (and .def_45 .def_46))
(define-fun .def_49 () Bool (and .def_47 .def_48))
(define-fun .def_51 () Bool (and .def_49 .def_50))
(define-fun .def_53 () Bool (and .def_51 .def_52))
(define-fun .def_110 () Bool (! (or .def_53 .def_109) :trans true))
(define-fun .def_113 () Int (! |.x{45}| :next |.xpv{1}|))
(define-fun .def_115 () Int (! |.x{46}| :next |.xpv{2}|))
(define-fun .def_131 () Bool (and .def_24 .def_46))
(define-fun .def_126 () Bool (<= .def_115 .def_113))
(define-fun .def_127 () Bool (not .def_126))
(define-fun .def_123 () Bool (<= 0 .def_113))
(define-fun .def_124 () Bool (and .def_86 .def_123))
(define-fun .def_121 () Bool (<= .def_20 .def_113))
(define-fun .def_122 () Bool (not .def_121))
(define-fun .def_125 () Bool (and .def_122 .def_124))
(define-fun .def_128 () Bool (and .def_125 .def_127))
(define-fun .def_119 () Bool (<= .def_20 .def_115))
(define-fun .def_120 () Bool (not .def_119))
(define-fun .def_129 () Bool (and .def_120 .def_128))
(define-fun .def_114 () Int (select .def_16 .def_113))
(define-fun .def_116 () Int (select .def_16 .def_115))
(define-fun .def_117 () Bool (<= .def_116 .def_114))
(define-fun .def_118 () Bool (not .def_117))
(define-fun .def_130 () Bool (and .def_118 .def_129))
(define-fun .def_132 () Bool (and .def_130 .def_131))
(define-fun .def_135 () Bool (! (not .def_132) :invar-property 0))
(assert true)
